unsat
(forall ((A (_ BitVec 20))
         (B (_ BitVec 20))
         (C (_ BitVec 20))
         (D (_ BitVec 20))
         (E (_ BitVec 20))
         (F (_ BitVec 20))
         (G (_ BitVec 20))
         (H (_ BitVec 20))
         (I (_ BitVec 20))
         (J (_ BitVec 20))
         (K (_ BitVec 20))
         (L (_ BitVec 20))
         (M (_ BitVec 22))
         (N (_ BitVec 14))
         (O (_ BitVec 14))
         (P (_ BitVec 20))
         (Q (_ BitVec 20))
         (R (_ BitVec 20))
         (S (_ BitVec 20))
         (T (_ BitVec 20))
         (U (_ BitVec 20))
         (V (_ BitVec 20))
         (W (_ BitVec 20))
         (X (_ BitVec 38))
         (Y (_ BitVec 38))
         (Z (_ BitVec 38))
         (A1 (_ BitVec 20))
         (B1 (_ BitVec 20))
         (C1 (_ BitVec 20))
         (D1 (_ BitVec 17))
         (E1 (_ BitVec 17))
         (F1 (_ BitVec 18))
         (G1 (_ BitVec 20))
         (H1 (_ BitVec 22))
         (I1 (_ BitVec 20))
         (J1 (_ BitVec 20))
         (K1 (_ BitVec 1))
         (L1 (_ BitVec 1))
         (M1 (_ BitVec 20))
         (N1 (_ BitVec 22))
         (O1 (_ BitVec 20))
         (P1 (_ BitVec 1))
         (Q1 (_ BitVec 20))
         (R1 (_ BitVec 17))
         (S1 (_ BitVec 1))
         (T1 (_ BitVec 20))
         (U1 (_ BitVec 20))
         (V1 (_ BitVec 20))
         (W1 (_ BitVec 1))
         (X1 (_ BitVec 20))
         (Y1 (_ BitVec 20))
         (Z1 (_ BitVec 38))
         (A2 (_ BitVec 20))
         (B2 (_ BitVec 1))
         (C2 (_ BitVec 1))
         (D2 (_ BitVec 20))
         (E2 (_ BitVec 20))
         (F2 (_ BitVec 20))
         (G2 (_ BitVec 18))
         (H2 (_ BitVec 22))
         (I2 (_ BitVec 20))
         (J2 (_ BitVec 20))
         (K2 (_ BitVec 20))
         (L2 (_ BitVec 20))
         (M2 (_ BitVec 20))
         (N2 (_ BitVec 1))
         (O2 (_ BitVec 20))
         (P2 (_ BitVec 20))
         (Q2 (_ BitVec 18))
         (R2 (_ BitVec 17))
         (S2 (_ BitVec 20))
         (T2 (_ BitVec 22))
         (U2 (_ BitVec 1))
         (V2 (_ BitVec 14))
         (W2 (_ BitVec 38))
         (X2 (_ BitVec 14))
         (Y2 (_ BitVec 20))
         (Z2 (_ BitVec 16))
         (A3 (_ BitVec 38))
         (B3 (_ BitVec 30))
         (C3 (_ BitVec 30))
         (D3 (_ BitVec 20))
         (E3 (_ BitVec 1))
         (F3 (_ BitVec 20))
         (G3 (_ BitVec 20))
         (H3 (_ BitVec 20))
         (I3 (_ BitVec 20))
         (J3 (_ BitVec 16))
         (K3 (_ BitVec 17))
         (L3 (_ BitVec 20))
         (M3 (_ BitVec 30))
         (N3 (_ BitVec 1))
         (O3 (_ BitVec 38))
         (P3 (_ BitVec 30)))
  (! (let ((a!1 (concat ((_ extract 3 2)
                          (bvadd ((_ extract 37 6) Z1) (concat #b0000000000 N1)))
                        (bvadd ((_ extract 7 6) Z1) ((_ extract 1 0) N1))
                        ((_ extract 5 0) Z1)))
           (a!2 (or (not (= ((_ extract 0 0) Q2) #b1))
                    ((_ bit2bool 0) G2)
                    (= ((_ extract 0 0) F1) #b1)))
           (a!3 (or ((_ bit2bool 0) P)
                    ((_ bit2bool 0) X1)
                    (not (= ((_ extract 0 0) J) #b1))))
           (a!4 (or (not (= ((_ extract 0 0) C1) #b1))
                    (= ((_ extract 0 0) V) #b1)))
           (a!5 (or (not (= ((_ extract 0 0) D2) #b1))
                    (not (= ((_ extract 0 0) L3) #b0))))
           (a!6 (= (concat (bvadd ((_ extract 9 8) Y) ((_ extract 1 0) M))
                           ((_ extract 7 0) Y))
                   ((_ extract 9 0) R1)))
           (a!7 ((_ extract 7 2)
                  (bvadd (concat #b0 H1) (concat #b000 ((_ extract 21 2) T2)))))
           (a!9 (concat ((_ extract 5 2)
                          (bvadd ((_ extract 37 4) Z) (concat #x000 H2)))
                        (bvadd ((_ extract 5 4) Z) ((_ extract 1 0) H2))
                        ((_ extract 3 0) Z))))
     (let ((a!8 (= (concat a!7
                           (bvadd ((_ extract 3 2) T2) ((_ extract 1 0) H1))
                           ((_ extract 1 0) T2))
                   ((_ extract 9 0) E1))))
     (let ((a!10 (and (or ((_ bit2bool 1) D2)
                          ((_ bit2bool 2) D2)
                          (not ((_ bit2bool 0) D2))
                          (= a!1 ((_ extract 9 0) K3)))
                      (not (= ((_ extract 17 17) F1) #b1))
                      (not ((_ bit2bool 3) N))
                      (not ((_ bit2bool 2) N))
                      (not ((_ bit2bool 1) N))
                      (not ((_ bit2bool 0) N))
                      (not ((_ bit2bool 0) O))
                      (not (= ((_ extract 17 17) G2) #b1))
                      (not (= ((_ extract 17 17) Q2) #b1))
                      (or (not ((_ bit2bool 0) X1))
                          (= ((_ extract 0 0) J) #b1)
                          (= ((_ extract 0 0) P) #b1))
                      (not ((_ bit2bool 1) O))
                      (or ((_ bit2bool 1) Q2)
                          ((_ bit2bool 2) Q2)
                          (= ((_ extract 2 2) F1) #b1)
                          (not ((_ bit2bool 2) G2))
                          (not ((_ bit2bool 0) G2)))
                      a!2
                      (or ((_ bit2bool 2) X1)
                          ((_ bit2bool 0) J)
                          ((_ bit2bool 2) J)
                          (not ((_ bit2bool 2) P))
                          (= ((_ extract 1 1) X1) #b1))
                      (or ((_ bit2bool 1) Q2)
                          ((_ bit2bool 0) Q2)
                          ((_ bit2bool 0) G2)
                          (= ((_ extract 1 1) F1) #b1)
                          (not ((_ bit2bool 1) G2)))
                      a!3
                      (not ((_ bit2bool 5) O))
                      (not ((_ bit2bool 1) X2))
                      a!4
                      (or (not ((_ bit2bool 0) S2)) (= ((_ extract 0 0) W) #b1))
                      a!5
                      (or ((_ bit2bool 1) S2)
                          ((_ bit2bool 2) S2)
                          (not ((_ bit2bool 0) S2))
                          (= ((_ extract 9 0) T2) ((_ extract 9 0) E1))
                          (= ((_ extract 0 0) H1) #b1))
                      (not ((_ bit2bool 3) O))
                      (not ((_ bit2bool 2) O))
                      (not ((_ bit2bool 4) O))
                      (not ((_ bit2bool 0) X2))
                      (or a!6 (not (= A1 #x00001)))
                      (or (not (= O1 #x00001))
                          (= ((_ extract 9 0) D1) ((_ extract 9 0) X)))
                      (or (not (= N2 #b0)) (= L1 #b0))
                      (or ((_ bit2bool 1) S2)
                          ((_ bit2bool 2) S2)
                          (not ((_ bit2bool 0) S2))
                          a!8)
                      (or ((_ bit2bool 1) C1)
                          ((_ bit2bool 2) C1)
                          (not ((_ bit2bool 0) C1))
                          (= a!9 ((_ extract 9 0) R2))))))
       (= (INV!slice!1 A
                       B
                       C
                       D
                       E
                       F
                       G
                       H
                       I
                       J
                       K
                       L
                       M
                       N
                       O
                       P
                       Q
                       R
                       S
                       T
                       U
                       V
                       W
                       X
                       Y
                       Z
                       A1
                       B1
                       C1
                       D1
                       E1
                       F1
                       G1
                       H1
                       I1
                       J1
                       K1
                       L1
                       M1
                       N1
                       O1
                       P1
                       Q1
                       R1
                       S1
                       T1
                       U1
                       V1
                       W1
                       X1
                       Y1
                       Z1
                       A2
                       B2
                       C2
                       D2
                       E2
                       F2
                       G2
                       H2
                       I2
                       J2
                       K2
                       L2
                       M2
                       N2
                       O2
                       P2
                       Q2
                       R2
                       S2
                       T2
                       U2
                       V2
                       W2
                       X2
                       Y2
                       Z2
                       A3
                       B3
                       C3
                       D3
                       E3
                       F3
                       G3
                       H3
                       I3
                       J3
                       K3
                       L3
                       M3
                       N3
                       O3
                       P3)
          a!10))))
     :weight 0))
